%%MatrixMarket matrix coordinate real general
% Hybrid smoke example with mixed signs and empty rows 2 and 5.
1024 1024 1026
1 1 2.0
1 4 -1.0
3 2 3.0
3 3 0.5
4 1 -2.0
4 6 1.25
6 2 -0.75
6 6 4.0
7 7 -1.25
8 8 2.0
9 9 -1.25
10 10 2.0
11 11 -1.25
12 12 2.0
13 13 -1.25
14 14 2.0
15 15 -1.25
16 16 2.0
17 17 -1.25
18 18 2.0
19 19 -1.25
20 20 2.0
21 21 -1.25
22 22 2.0
23 23 -1.25
24 24 2.0
25 25 -1.25
26 26 2.0
27 27 -1.25
28 28 2.0
29 29 -1.25
30 30 2.0
31 31 -1.25
32 32 2.0
33 33 -1.25
34 34 2.0
35 35 -1.25
36 36 2.0
37 37 -1.25
38 38 2.0
39 39 -1.25
40 40 2.0
41 41 -1.25
42 42 2.0
43 43 -1.25
44 44 2.0
45 45 -1.25
46 46 2.0
47 47 -1.25
48 48 2.0
49 49 -1.25
50 50 2.0
51 51 -1.25
52 52 2.0
53 53 -1.25
54 54 2.0
55 55 -1.25
56 56 2.0
57 57 -1.25
58 58 2.0
59 59 -1.25
60 60 2.0
61 61 -1.25
62 62 2.0
63 63 -1.25
64 64 2.0
65 65 -1.25
66 66 2.0
67 67 -1.25
68 68 2.0
69 69 -1.25
70 70 2.0
71 71 -1.25
72 72 2.0
73 73 -1.25
74 74 2.0
75 75 -1.25
76 76 2.0
77 77 -1.25
78 78 2.0
79 79 -1.25
80 80 2.0
81 81 -1.25
82 82 2.0
83 83 -1.25
84 84 2.0
85 85 -1.25
86 86 2.0
87 87 -1.25
88 88 2.0
89 89 -1.25
90 90 2.0
91 91 -1.25
92 92 2.0
93 93 -1.25
94 94 2.0
95 95 -1.25
96 96 2.0
97 97 -1.25
98 98 2.0
99 99 -1.25
100 100 2.0
101 101 -1.25
102 102 2.0
103 103 -1.25
104 104 2.0
105 105 -1.25
106 106 2.0
107 107 -1.25
108 108 2.0
109 109 -1.25
110 110 2.0
111 111 -1.25
112 112 2.0
113 113 -1.25
114 114 2.0
115 115 -1.25
116 116 2.0
117 117 -1.25
118 118 2.0
119 119 -1.25
120 120 2.0
121 121 -1.25
122 122 2.0
123 123 -1.25
124 124 2.0
125 125 -1.25
126 126 2.0
127 127 -1.25
128 128 2.0
129 129 -1.25
130 130 2.0
131 131 -1.25
132 132 2.0
133 133 -1.25
134 134 2.0
135 135 -1.25
136 136 2.0
137 137 -1.25
138 138 2.0
139 139 -1.25
140 140 2.0
141 141 -1.25
142 142 2.0
143 143 -1.25
144 144 2.0
145 145 -1.25
146 146 2.0
147 147 -1.25
148 148 2.0
149 149 -1.25
150 150 2.0
151 151 -1.25
152 152 2.0
153 153 -1.25
154 154 2.0
155 155 -1.25
156 156 2.0
157 157 -1.25
158 158 2.0
159 159 -1.25
160 160 2.0
161 161 -1.25
162 162 2.0
163 163 -1.25
164 164 2.0
165 165 -1.25
166 166 2.0
167 167 -1.25
168 168 2.0
169 169 -1.25
170 170 2.0
171 171 -1.25
172 172 2.0
173 173 -1.25
174 174 2.0
175 175 -1.25
176 176 2.0
177 177 -1.25
178 178 2.0
179 179 -1.25
180 180 2.0
181 181 -1.25
182 182 2.0
183 183 -1.25
184 184 2.0
185 185 -1.25
186 186 2.0
187 187 -1.25
188 188 2.0
189 189 -1.25
190 190 2.0
191 191 -1.25
192 192 2.0
193 193 -1.25
194 194 2.0
195 195 -1.25
196 196 2.0
197 197 -1.25
198 198 2.0
199 199 -1.25
200 200 2.0
201 201 -1.25
202 202 2.0
203 203 -1.25
204 204 2.0
205 205 -1.25
206 206 2.0
207 207 -1.25
208 208 2.0
209 209 -1.25
210 210 2.0
211 211 -1.25
212 212 2.0
213 213 -1.25
214 214 2.0
215 215 -1.25
216 216 2.0
217 217 -1.25
218 218 2.0
219 219 -1.25
220 220 2.0
221 221 -1.25
222 222 2.0
223 223 -1.25
224 224 2.0
225 225 -1.25
226 226 2.0
227 227 -1.25
228 228 2.0
229 229 -1.25
230 230 2.0
231 231 -1.25
232 232 2.0
233 233 -1.25
234 234 2.0
235 235 -1.25
236 236 2.0
237 237 -1.25
238 238 2.0
239 239 -1.25
240 240 2.0
241 241 -1.25
242 242 2.0
243 243 -1.25
244 244 2.0
245 245 -1.25
246 246 2.0
247 247 -1.25
248 248 2.0
249 249 -1.25
250 250 2.0
251 251 -1.25
252 252 2.0
253 253 -1.25
254 254 2.0
255 255 -1.25
256 256 2.0
257 257 -1.25
258 258 2.0
259 259 -1.25
260 260 2.0
261 261 -1.25
262 262 2.0
263 263 -1.25
264 264 2.0
265 265 -1.25
266 266 2.0
267 267 -1.25
268 268 2.0
269 269 -1.25
270 270 2.0
271 271 -1.25
272 272 2.0
273 273 -1.25
274 274 2.0
275 275 -1.25
276 276 2.0
277 277 -1.25
278 278 2.0
279 279 -1.25
280 280 2.0
281 281 -1.25
282 282 2.0
283 283 -1.25
284 284 2.0
285 285 -1.25
286 286 2.0
287 287 -1.25
288 288 2.0
289 289 -1.25
290 290 2.0
291 291 -1.25
292 292 2.0
293 293 -1.25
294 294 2.0
295 295 -1.25
296 296 2.0
297 297 -1.25
298 298 2.0
299 299 -1.25
300 300 2.0
301 301 -1.25
302 302 2.0
303 303 -1.25
304 304 2.0
305 305 -1.25
306 306 2.0
307 307 -1.25
308 308 2.0
309 309 -1.25
310 310 2.0
311 311 -1.25
312 312 2.0
313 313 -1.25
314 314 2.0
315 315 -1.25
316 316 2.0
317 317 -1.25
318 318 2.0
319 319 -1.25
320 320 2.0
321 321 -1.25
322 322 2.0
323 323 -1.25
324 324 2.0
325 325 -1.25
326 326 2.0
327 327 -1.25
328 328 2.0
329 329 -1.25
330 330 2.0
331 331 -1.25
332 332 2.0
333 333 -1.25
334 334 2.0
335 335 -1.25
336 336 2.0
337 337 -1.25
338 338 2.0
339 339 -1.25
340 340 2.0
341 341 -1.25
342 342 2.0
343 343 -1.25
344 344 2.0
345 345 -1.25
346 346 2.0
347 347 -1.25
348 348 2.0
349 349 -1.25
350 350 2.0
351 351 -1.25
352 352 2.0
353 353 -1.25
354 354 2.0
355 355 -1.25
356 356 2.0
357 357 -1.25
358 358 2.0
359 359 -1.25
360 360 2.0
361 361 -1.25
362 362 2.0
363 363 -1.25
364 364 2.0
365 365 -1.25
366 366 2.0
367 367 -1.25
368 368 2.0
369 369 -1.25
370 370 2.0
371 371 -1.25
372 372 2.0
373 373 -1.25
374 374 2.0
375 375 -1.25
376 376 2.0
377 377 -1.25
378 378 2.0
379 379 -1.25
380 380 2.0
381 381 -1.25
382 382 2.0
383 383 -1.25
384 384 2.0
385 385 -1.25
386 386 2.0
387 387 -1.25
388 388 2.0
389 389 -1.25
390 390 2.0
391 391 -1.25
392 392 2.0
393 393 -1.25
394 394 2.0
395 395 -1.25
396 396 2.0
397 397 -1.25
398 398 2.0
399 399 -1.25
400 400 2.0
401 401 -1.25
402 402 2.0
403 403 -1.25
404 404 2.0
405 405 -1.25
406 406 2.0
407 407 -1.25
408 408 2.0
409 409 -1.25
410 410 2.0
411 411 -1.25
412 412 2.0
413 413 -1.25
414 414 2.0
415 415 -1.25
416 416 2.0
417 417 -1.25
418 418 2.0
419 419 -1.25
420 420 2.0
421 421 -1.25
422 422 2.0
423 423 -1.25
424 424 2.0
425 425 -1.25
426 426 2.0
427 427 -1.25
428 428 2.0
429 429 -1.25
430 430 2.0
431 431 -1.25
432 432 2.0
433 433 -1.25
434 434 2.0
435 435 -1.25
436 436 2.0
437 437 -1.25
438 438 2.0
439 439 -1.25
440 440 2.0
441 441 -1.25
442 442 2.0
443 443 -1.25
444 444 2.0
445 445 -1.25
446 446 2.0
447 447 -1.25
448 448 2.0
449 449 -1.25
450 450 2.0
451 451 -1.25
452 452 2.0
453 453 -1.25
454 454 2.0
455 455 -1.25
456 456 2.0
457 457 -1.25
458 458 2.0
459 459 -1.25
460 460 2.0
461 461 -1.25
462 462 2.0
463 463 -1.25
464 464 2.0
465 465 -1.25
466 466 2.0
467 467 -1.25
468 468 2.0
469 469 -1.25
470 470 2.0
471 471 -1.25
472 472 2.0
473 473 -1.25
474 474 2.0
475 475 -1.25
476 476 2.0
477 477 -1.25
478 478 2.0
479 479 -1.25
480 480 2.0
481 481 -1.25
482 482 2.0
483 483 -1.25
484 484 2.0
485 485 -1.25
486 486 2.0
487 487 -1.25
488 488 2.0
489 489 -1.25
490 490 2.0
491 491 -1.25
492 492 2.0
493 493 -1.25
494 494 2.0
495 495 -1.25
496 496 2.0
497 497 -1.25
498 498 2.0
499 499 -1.25
500 500 2.0
501 501 -1.25
502 502 2.0
503 503 -1.25
504 504 2.0
505 505 -1.25
506 506 2.0
507 507 -1.25
508 508 2.0
509 509 -1.25
510 510 2.0
511 511 -1.25
512 512 2.0
513 513 -1.25
514 514 2.0
515 515 -1.25
516 516 2.0
517 517 -1.25
518 518 2.0
519 519 -1.25
520 520 2.0
521 521 -1.25
522 522 2.0
523 523 -1.25
524 524 2.0
525 525 -1.25
526 526 2.0
527 527 -1.25
528 528 2.0
529 529 -1.25
530 530 2.0
531 531 -1.25
532 532 2.0
533 533 -1.25
534 534 2.0
535 535 -1.25
536 536 2.0
537 537 -1.25
538 538 2.0
539 539 -1.25
540 540 2.0
541 541 -1.25
542 542 2.0
543 543 -1.25
544 544 2.0
545 545 -1.25
546 546 2.0
547 547 -1.25
548 548 2.0
549 549 -1.25
550 550 2.0
551 551 -1.25
552 552 2.0
553 553 -1.25
554 554 2.0
555 555 -1.25
556 556 2.0
557 557 -1.25
558 558 2.0
559 559 -1.25
560 560 2.0
561 561 -1.25
562 562 2.0
563 563 -1.25
564 564 2.0
565 565 -1.25
566 566 2.0
567 567 -1.25
568 568 2.0
569 569 -1.25
570 570 2.0
571 571 -1.25
572 572 2.0
573 573 -1.25
574 574 2.0
575 575 -1.25
576 576 2.0
577 577 -1.25
578 578 2.0
579 579 -1.25
580 580 2.0
581 581 -1.25
582 582 2.0
583 583 -1.25
584 584 2.0
585 585 -1.25
586 586 2.0
587 587 -1.25
588 588 2.0
589 589 -1.25
590 590 2.0
591 591 -1.25
592 592 2.0
593 593 -1.25
594 594 2.0
595 595 -1.25
596 596 2.0
597 597 -1.25
598 598 2.0
599 599 -1.25
600 600 2.0
601 601 -1.25
602 602 2.0
603 603 -1.25
604 604 2.0
605 605 -1.25
606 606 2.0
607 607 -1.25
608 608 2.0
609 609 -1.25
610 610 2.0
611 611 -1.25
612 612 2.0
613 613 -1.25
614 614 2.0
615 615 -1.25
616 616 2.0
617 617 -1.25
618 618 2.0
619 619 -1.25
620 620 2.0
621 621 -1.25
622 622 2.0
623 623 -1.25
624 624 2.0
625 625 -1.25
626 626 2.0
627 627 -1.25
628 628 2.0
629 629 -1.25
630 630 2.0
631 631 -1.25
632 632 2.0
633 633 -1.25
634 634 2.0
635 635 -1.25
636 636 2.0
637 637 -1.25
638 638 2.0
639 639 -1.25
640 640 2.0
641 641 -1.25
642 642 2.0
643 643 -1.25
644 644 2.0
645 645 -1.25
646 646 2.0
647 647 -1.25
648 648 2.0
649 649 -1.25
650 650 2.0
651 651 -1.25
652 652 2.0
653 653 -1.25
654 654 2.0
655 655 -1.25
656 656 2.0
657 657 -1.25
658 658 2.0
659 659 -1.25
660 660 2.0
661 661 -1.25
662 662 2.0
663 663 -1.25
664 664 2.0
665 665 -1.25
666 666 2.0
667 667 -1.25
668 668 2.0
669 669 -1.25
670 670 2.0
671 671 -1.25
672 672 2.0
673 673 -1.25
674 674 2.0
675 675 -1.25
676 676 2.0
677 677 -1.25
678 678 2.0
679 679 -1.25
680 680 2.0
681 681 -1.25
682 682 2.0
683 683 -1.25
684 684 2.0
685 685 -1.25
686 686 2.0
687 687 -1.25
688 688 2.0
689 689 -1.25
690 690 2.0
691 691 -1.25
692 692 2.0
693 693 -1.25
694 694 2.0
695 695 -1.25
696 696 2.0
697 697 -1.25
698 698 2.0
699 699 -1.25
700 700 2.0
701 701 -1.25
702 702 2.0
703 703 -1.25
704 704 2.0
705 705 -1.25
706 706 2.0
707 707 -1.25
708 708 2.0
709 709 -1.25
710 710 2.0
711 711 -1.25
712 712 2.0
713 713 -1.25
714 714 2.0
715 715 -1.25
716 716 2.0
717 717 -1.25
718 718 2.0
719 719 -1.25
720 720 2.0
721 721 -1.25
722 722 2.0
723 723 -1.25
724 724 2.0
725 725 -1.25
726 726 2.0
727 727 -1.25
728 728 2.0
729 729 -1.25
730 730 2.0
731 731 -1.25
732 732 2.0
733 733 -1.25
734 734 2.0
735 735 -1.25
736 736 2.0
737 737 -1.25
738 738 2.0
739 739 -1.25
740 740 2.0
741 741 -1.25
742 742 2.0
743 743 -1.25
744 744 2.0
745 745 -1.25
746 746 2.0
747 747 -1.25
748 748 2.0
749 749 -1.25
750 750 2.0
751 751 -1.25
752 752 2.0
753 753 -1.25
754 754 2.0
755 755 -1.25
756 756 2.0
757 757 -1.25
758 758 2.0
759 759 -1.25
760 760 2.0
761 761 -1.25
762 762 2.0
763 763 -1.25
764 764 2.0
765 765 -1.25
766 766 2.0
767 767 -1.25
768 768 2.0
769 769 -1.25
770 770 2.0
771 771 -1.25
772 772 2.0
773 773 -1.25
774 774 2.0
775 775 -1.25
776 776 2.0
777 777 -1.25
778 778 2.0
779 779 -1.25
780 780 2.0
781 781 -1.25
782 782 2.0
783 783 -1.25
784 784 2.0
785 785 -1.25
786 786 2.0
787 787 -1.25
788 788 2.0
789 789 -1.25
790 790 2.0
791 791 -1.25
792 792 2.0
793 793 -1.25
794 794 2.0
795 795 -1.25
796 796 2.0
797 797 -1.25
798 798 2.0
799 799 -1.25
800 800 2.0
801 801 -1.25
802 802 2.0
803 803 -1.25
804 804 2.0
805 805 -1.25
806 806 2.0
807 807 -1.25
808 808 2.0
809 809 -1.25
810 810 2.0
811 811 -1.25
812 812 2.0
813 813 -1.25
814 814 2.0
815 815 -1.25
816 816 2.0
817 817 -1.25
818 818 2.0
819 819 -1.25
820 820 2.0
821 821 -1.25
822 822 2.0
823 823 -1.25
824 824 2.0
825 825 -1.25
826 826 2.0
827 827 -1.25
828 828 2.0
829 829 -1.25
830 830 2.0
831 831 -1.25
832 832 2.0
833 833 -1.25
834 834 2.0
835 835 -1.25
836 836 2.0
837 837 -1.25
838 838 2.0
839 839 -1.25
840 840 2.0
841 841 -1.25
842 842 2.0
843 843 -1.25
844 844 2.0
845 845 -1.25
846 846 2.0
847 847 -1.25
848 848 2.0
849 849 -1.25
850 850 2.0
851 851 -1.25
852 852 2.0
853 853 -1.25
854 854 2.0
855 855 -1.25
856 856 2.0
857 857 -1.25
858 858 2.0
859 859 -1.25
860 860 2.0
861 861 -1.25
862 862 2.0
863 863 -1.25
864 864 2.0
865 865 -1.25
866 866 2.0
867 867 -1.25
868 868 2.0
869 869 -1.25
870 870 2.0
871 871 -1.25
872 872 2.0
873 873 -1.25
874 874 2.0
875 875 -1.25
876 876 2.0
877 877 -1.25
878 878 2.0
879 879 -1.25
880 880 2.0
881 881 -1.25
882 882 2.0
883 883 -1.25
884 884 2.0
885 885 -1.25
886 886 2.0
887 887 -1.25
888 888 2.0
889 889 -1.25
890 890 2.0
891 891 -1.25
892 892 2.0
893 893 -1.25
894 894 2.0
895 895 -1.25
896 896 2.0
897 897 -1.25
898 898 2.0
899 899 -1.25
900 900 2.0
901 901 -1.25
902 902 2.0
903 903 -1.25
904 904 2.0
905 905 -1.25
906 906 2.0
907 907 -1.25
908 908 2.0
909 909 -1.25
910 910 2.0
911 911 -1.25
912 912 2.0
913 913 -1.25
914 914 2.0
915 915 -1.25
916 916 2.0
917 917 -1.25
918 918 2.0
919 919 -1.25
920 920 2.0
921 921 -1.25
922 922 2.0
923 923 -1.25
924 924 2.0
925 925 -1.25
926 926 2.0
927 927 -1.25
928 928 2.0
929 929 -1.25
930 930 2.0
931 931 -1.25
932 932 2.0
933 933 -1.25
934 934 2.0
935 935 -1.25
936 936 2.0
937 937 -1.25
938 938 2.0
939 939 -1.25
940 940 2.0
941 941 -1.25
942 942 2.0
943 943 -1.25
944 944 2.0
945 945 -1.25
946 946 2.0
947 947 -1.25
948 948 2.0
949 949 -1.25
950 950 2.0
951 951 -1.25
952 952 2.0
953 953 -1.25
954 954 2.0
955 955 -1.25
956 956 2.0
957 957 -1.25
958 958 2.0
959 959 -1.25
960 960 2.0
961 961 -1.25
962 962 2.0
963 963 -1.25
964 964 2.0
965 965 -1.25
966 966 2.0
967 967 -1.25
968 968 2.0
969 969 -1.25
970 970 2.0
971 971 -1.25
972 972 2.0
973 973 -1.25
974 974 2.0
975 975 -1.25
976 976 2.0
977 977 -1.25
978 978 2.0
979 979 -1.25
980 980 2.0
981 981 -1.25
982 982 2.0
983 983 -1.25
984 984 2.0
985 985 -1.25
986 986 2.0
987 987 -1.25
988 988 2.0
989 989 -1.25
990 990 2.0
991 991 -1.25
992 992 2.0
993 993 -1.25
994 994 2.0
995 995 -1.25
996 996 2.0
997 997 -1.25
998 998 2.0
999 999 -1.25
1000 1000 2.0
1001 1001 -1.25
1002 1002 2.0
1003 1003 -1.25
1004 1004 2.0
1005 1005 -1.25
1006 1006 2.0
1007 1007 -1.25
1008 1008 2.0
1009 1009 -1.25
1010 1010 2.0
1011 1011 -1.25
1012 1012 2.0
1013 1013 -1.25
1014 1014 2.0
1015 1015 -1.25
1016 1016 2.0
1017 1017 -1.25
1018 1018 2.0
1019 1019 -1.25
1020 1020 2.0
1021 1021 -1.25
1022 1022 2.0
1023 1023 -1.25
1024 1024 2.0
